1,46614,34571,30905,29480,41097,6917,31425,31939,34139,50050,10258,11813,19140,46193,28311,27503,1790,28232,39773,49980,5202,7461,33864,15992,23593,6898,41804,21263,5515,39375,25685,31383,22592,16856,1834,26929,45567,47462,3730,42805,40953,4263,37499,5901,34800,22553,40209,24456,42471,24634,21597,34999,21109,24158,13868,33558,36638,36059,38003,13299,39599,23084,19708,3280,34536,6712,31932,38688,44905,46630,22789,22228,47513,5835,22104,43012,39853,26267,44234,9199,
2,1790,1834,1790,1790,1834,3280,3280,4263,908,1737,3733,1549,3907,921,3101,1492,920,2250,1367,2621,481,361,464,1301,4841,1452,3622,4513,1790,2708,1768,508,343,698,1348,1729,480,596,4415,1890,151,327,2412,4302,4297,276,753,9470,2223,1093,4250,3166,327,401,2227,928,8281,735,5214,1260,454,1080,5555,14592,4243,1008,2639,488,3476,2424,361,898,1392,25617,1907,30724,3943,1513,609,14591,
3,151,151,276,327,151,276,151,327,1456,855,989,756,756,254,361,596,1367,1747,488,1924,609,2311,2141,488,343,1541,1241,463,734,1294,596,151,479,1549,1364,1019,444,1773,230,151,361,657,954,280,934,454,825,2035,715,343,497,479,1581,361,1088,213,454,1175,1088,1999,1999,361,361,1387,911,327,343,2417,467,657,735,723,7223,3097,1549,18432,40999,14276,6655,13299,
4,151,151,151,151,151,151,151,151,327,1780,6962,361,222,151,151,327,151,491,151,5872,6961,151,1780,313,454,479,2882,151,2882,151,544,3515,213,151,1780,151,1205,151,12075,11314,327,151,9103,6961,151,522,609,4375,7032,327,1780,8073,1580,1360,596,2885,463,1780,151,3515,151,151,343,151,151,16692,4641,454,151,2882,151,2056,480,4598,3423,19200,4938,3292,47588,5497,
5,151,151,151,151,151,151,151,151,1780,151,1780,151,151,151,151,151,151,1656,151,151,151,151,151,151,151,1038,21754,151,151,151,151,1780,151,151,151,151,151,151,151,151,151,151,151,151,1780,151,151,151,151,151,151,151,151,151,151,151,151,151,151,2959,151,151,151,151,151,151,151,151,151,151,21754,151,151,54495,14762,8265,28047,13918,28570,48693,
6,151,151,151,151,151,151,151,151,151,151,151,151,151,151,151,151,151,151,151,151,151,151,151,151,151,151,151,151,151,151,151,151,151,151,151,151,151,151,151,151,151,151,151,151,151,151,151,151,151,151,151,151,151,151,151,151,151,151,151,151,151,151,151,151,151,151,151,151,151,151,151,151,50001,151,52671,151,151,151,151,44287,
7,151,151,151,151,151,151,151,151,151,151,151,151,151,151,151,151,151,151,151,151,151,151,151,151,151,151,151,151,151,151,151,151,151,151,151,151,151,151,151,151,151,151,151,151,151,151,12383,151,151,151,151,151,151,151,151,151,151,151,151,151,151,151,151,151,151,12383,151,151,151,151,151,151,43136,26041,45850,28968,151,29299,151,38902,
8,151,151,151,151,151,151,151,151,151,151,151,151,151,151,151,151,151,151,151,151,151,151,151,151,151,151,151,151,151,151,151,151,151,151,151,151,151,151,151,151,151,151,151,151,151,151,151,151,151,151,151,151,151,151,151,151,151,151,151,151,151,151,151,151,151,151,151,151,151,151,151,151,56757,151,25635,151,151,151,151,151,
9,151,151,151,151,151,151,151,151,151,6192,151,151,151,151,151,151,151,151,151,151,151,151,151,151,151,151,151,151,151,151,151,151,151,151,151,151,151,151,151,151,151,151,6192,151,151,6192,151,151,151,151,151,151,151,151,151,151,151,151,6192,151,151,151,151,26404,151,151,151,151,151,151,151,151,21943,151,35470,151,24893,31708,19066,151,
10,151,151,151,151,151,151,151,151,151,151,151,151,151,151,15838,10837,151,151,151,151,151,151,151,151,151,151,151,151,151,151,151,151,151,151,151,151,151,151,151,151,151,151,151,15838,151,151,151,151,151,151,151,151,151,151,151,151,151,151,151,151,151,151,151,151,151,151,151,151,151,151,151,151,32559,41545,39963,151,151,58333,41562,61930,
11,151,151,151,151,151,151,151,151,151,151,151,151,151,151,151,1679,151,151,151,151,151,151,151,151,1679,151,151,151,151,151,151,151,151,151,151,151,151,151,1679,151,151,151,151,151,151,151,151,151,151,151,151,151,1679,151,5926,151,151,151,151,151,151,151,151,151,151,151,151,151,151,151,151,151,43031,151,4313,41936,151,53277,60586,151,
12,151,151,151,151,151,151,151,151,151,151,151,151,151,151,151,151,151,151,151,151,151,151,151,151,12587,151,151,1161,151,151,151,151,151,151,151,151,151,151,151,151,151,151,151,151,151,151,151,151,151,151,151,151,151,151,151,151,151,151,151,151,151,151,151,151,151,151,151,151,151,151,151,151,884,29700,22558,55384,151,2040,151,151,
13,151,151,151,151,151,151,151,151,151,151,151,151,151,151,151,151,151,151,151,151,151,151,151,151,151,151,151,151,151,151,151,151,151,151,151,151,151,151,151,151,151,151,151,151,151,151,151,151,151,151,151,151,151,151,151,151,151,151,151,151,151,151,151,151,151,1161,151,151,151,151,151,151,53328,40528,151,40745,151,36447,29745,151,
14,151,151,151,151,151,151,151,151,151,151,151,151,151,151,151,151,151,151,151,813,151,151,151,151,151,151,151,151,151,151,151,151,151,151,151,151,151,151,151,151,151,151,151,151,151,151,151,151,151,151,151,151,151,151,151,151,151,151,151,151,151,151,151,1120,151,151,151,151,151,151,151,151,8044,14343,151,32758,151,26902,33991,7726,
15,151,151,151,151,151,151,151,151,151,151,151,11336,151,151,151,151,151,151,151,151,151,151,11336,151,151,151,151,151,151,151,151,151,151,151,151,151,151,151,151,11336,151,151,151,151,151,151,151,151,151,151,151,151,151,151,151,151,151,151,151,151,151,151,151,151,151,151,151,151,151,151,151,151,12589,48973,151,36348,151,46993,39796,51334,
16,151,151,151,151,151,151,151,151,151,151,151,151,151,151,151,151,151,151,151,151,151,151,151,151,151,151,151,151,151,151,151,151,151,151,151,151,151,151,151,151,151,151,151,151,151,151,151,151,151,151,151,151,151,151,151,151,151,151,151,151,151,151,151,151,151,151,151,151,151,151,151,151,151,45757,59747,12469,151,27624,151,58005,
17,151,151,151,151,151,151,151,151,151,151,151,151,151,151,151,151,151,151,151,151,151,151,151,151,151,151,151,151,151,151,151,151,151,151,151,151,151,151,151,151,151,151,151,151,151,151,151,151,151,151,151,151,151,151,151,151,151,151,151,151,151,151,151,151,151,151,151,151,151,151,151,151,41620,31810,36537,151,56875,151,19983,17545,
18,151,151,151,151,151,151,151,151,151,151,151,151,151,151,151,151,151,151,151,151,151,151,151,151,151,151,151,151,151,151,151,151,151,151,151,151,151,151,151,151,151,151,151,151,151,151,151,151,151,151,151,151,151,151,151,151,151,151,151,151,151,151,151,151,151,151,151,151,151,151,151,151,151,14346,41293,151,151,151,151,151,
19,151,151,151,151,151,151,151,151,151,151,151,151,151,151,151,151,151,151,151,151,151,151,151,151,151,151,151,151,151,151,151,151,151,151,151,151,151,151,151,151,151,151,151,151,151,151,151,151,151,151,151,151,151,151,151,151,151,151,151,151,151,151,151,151,151,151,151,151,151,151,151,151,151,151,151,22062,151,10305,151,27550,
20,151,151,151,151,151,151,151,151,151,151,151,151,151,151,151,151,151,151,151,151,151,151,151,151,151,151,151,151,151,151,151,151,151,151,151,151,151,151,151,151,151,151,151,151,151,151,151,151,151,151,151,151,151,151,151,151,151,151,151,151,151,151,151,151,151,151,151,151,151,151,151,151,151,151,27350,55149,151,25579,151,151,
21,151,151,151,151,151,151,151,151,151,151,19378,151,151,151,151,151,151,151,151,151,151,151,151,151,151,151,151,151,151,151,151,151,151,151,151,151,151,151,151,151,151,151,151,151,151,151,151,151,151,151,151,151,151,151,151,151,151,151,151,151,151,151,151,151,151,151,151,151,151,151,151,151,29543,151,151,21932,27182,27835,151,54386,
22,151,151,151,151,151,151,151,151,151,151,151,151,151,151,151,151,151,151,151,151,151,151,151,151,151,151,151,151,151,151,151,151,151,151,151,151,151,151,151,151,151,151,151,151,151,151,151,151,151,151,151,151,151,151,151,151,151,151,151,151,151,151,151,151,151,151,151,151,151,151,151,151,40460,151,20753,22289,27071,12912,23235,19030,
23,151,151,151,151,151,151,151,151,151,19030,151,151,151,151,151,151,151,151,151,151,151,151,151,151,151,151,151,151,151,2210,151,151,151,151,151,151,151,151,151,151,151,151,151,2210,151,151,151,151,151,151,151,151,151,151,151,151,151,151,151,151,151,151,151,151,151,151,151,151,151,151,151,151,151,19137,151,47005,59599,151,151,151,
24,151,151,151,151,151,151,151,151,151,151,151,151,151,151,151,151,151,151,151,151,151,151,151,151,151,151,151,151,151,151,151,151,151,151,151,151,151,151,151,151,151,151,151,151,151,151,151,151,151,151,151,151,151,151,151,151,151,151,151,151,151,151,151,151,151,151,151,151,151,151,151,151,24480,151,25103,151,58531,18918,11739,39682,
25,151,151,151,151,151,151,151,151,151,151,151,151,151,151,151,151,151,151,151,151,151,151,151,151,151,151,151,151,151,151,151,151,151,3302,3302,151,151,151,151,151,151,151,151,151,151,151,151,151,151,151,151,151,151,151,151,151,151,151,151,151,151,151,151,151,151,151,151,151,3302,151,151,151,34937,6517,12568,35603,38400,151,48111,4662,
26,151,151,151,151,151,151,151,151,151,151,151,151,151,151,151,151,151,151,151,151,151,151,151,151,151,151,151,151,151,151,151,151,151,151,151,151,151,151,151,151,151,151,151,151,151,151,151,151,151,151,151,151,151,151,151,151,151,151,151,151,151,151,151,151,151,151,151,151,151,151,151,151,28784,36003,151,151,23793,14221,12034,47442,
27,151,151,151,151,151,151,151,151,151,151,151,151,151,151,151,151,151,151,151,151,151,151,151,151,151,151,151,151,151,151,151,151,151,3478,151,151,151,151,151,151,151,151,151,151,151,151,151,151,151,151,151,151,151,151,151,151,151,151,151,151,151,151,151,151,151,151,151,151,151,151,151,151,3376,46307,151,151,151,151,31399,45752,
28,151,151,151,151,151,151,151,151,151,151,151,151,151,151,151,151,151,151,151,151,151,151,151,151,151,151,151,11436,151,151,11436,151,151,151,151,151,151,151,151,151,151,151,151,151,151,151,151,151,151,151,151,151,151,151,151,151,151,151,151,151,151,4351,151,151,11436,151,151,151,151,151,151,151,50477,41671,44374,624,13360,22863,543,151,
29,151,151,151,151,151,151,151,151,151,151,151,151,151,151,151,151,151,151,151,151,151,151,151,151,151,151,151,151,151,13252,151,151,151,151,151,151,151,151,151,151,151,151,151,151,151,151,151,151,151,151,151,151,151,151,151,151,151,151,151,151,151,151,151,151,11436,151,151,151,151,151,151,151,51958,38509,4931,6442,31403,10803,34662,34799,
30,151,151,151,151,151,151,151,151,151,151,151,151,151,151,151,151,151,151,151,151,151,151,151,151,151,151,151,151,151,16617,151,151,151,151,151,151,151,151,151,151,151,151,151,151,151,151,151,151,151,151,151,151,151,151,151,151,151,151,151,151,151,151,151,151,151,151,151,151,151,151,151,151,54613,60338,2106,14036,4276,151,3261,151,
31,151,151,151,151,151,151,151,151,151,151,151,151,151,151,151,151,151,151,151,151,151,151,151,151,151,151,151,151,151,151,151,151,151,151,151,151,151,151,151,151,151,151,151,151,151,151,151,151,151,151,151,151,151,151,151,151,151,151,151,151,151,151,151,151,151,151,151,151,151,151,151,151,1885,151,13943,14621,40937,151,40383,54975,
32,151,151,151,151,151,151,151,151,151,151,151,151,151,151,151,151,151,151,151,151,151,151,151,151,151,151,151,151,151,151,151,151,151,151,151,151,151,151,151,151,151,151,151,151,151,151,151,151,151,151,151,151,151,151,151,151,151,151,151,151,151,151,151,151,151,151,151,151,151,151,151,151,4846,29698,151,151,55800,22847,48600,19547,
33,151,151,151,151,151,151,151,151,151,151,151,151,151,151,151,151,151,151,151,151,151,151,151,151,151,151,151,151,151,151,151,151,151,151,151,151,2502,151,151,151,151,151,151,151,151,151,151,151,151,151,151,151,151,151,151,151,151,151,151,151,151,151,151,151,151,151,151,151,151,151,151,151,33858,43767,45778,28600,151,48626,54595,51286,
34,151,151,151,151,151,151,151,151,151,151,151,151,151,151,151,151,151,151,151,151,151,151,151,151,151,151,151,151,151,151,151,151,151,151,151,151,151,151,151,151,151,151,151,151,151,151,151,151,151,151,151,151,151,151,151,151,151,151,151,151,151,151,151,151,151,151,151,151,151,151,151,151,151,37247,151,151,151,36210,44959,43407,
35,151,151,151,151,151,151,151,151,151,151,151,151,151,151,151,151,151,151,151,151,151,151,151,151,151,151,151,151,151,151,151,151,151,151,151,151,151,151,151,151,151,151,151,151,151,151,151,151,151,151,151,151,151,151,151,151,151,151,151,151,151,151,151,16999,16999,151,151,151,151,151,151,151,151,8669,151,29495,55293,37410,30462,151,
36,151,151,151,151,151,151,151,151,151,151,151,151,151,151,151,151,151,151,151,151,151,151,151,151,151,151,151,151,151,151,151,151,151,151,151,151,151,151,151,151,151,151,151,151,151,151,151,151,151,151,151,151,151,151,151,151,151,151,151,151,151,151,151,151,151,151,151,151,151,151,151,151,151,26002,50304,37164,151,34589,151,15102,
37,151,151,151,151,151,151,151,151,151,151,151,151,151,151,151,151,151,151,151,151,151,151,151,151,151,151,151,151,151,151,151,151,151,151,151,151,151,151,151,151,151,151,151,151,151,151,151,151,151,151,151,151,151,151,151,151,151,151,151,151,151,151,151,151,151,151,151,151,151,151,151,151,30026,48406,24603,10041,40463,56563,1863,151,
38,151,151,151,151,151,151,151,151,151,151,151,151,151,151,151,151,151,151,151,151,151,151,5932,151,151,151,151,151,151,151,151,151,151,151,151,151,151,151,151,151,151,151,151,151,151,151,151,151,151,151,151,151,151,151,151,151,151,151,151,151,151,151,151,151,151,151,151,151,151,151,151,151,151,38112,11682,33858,23559,151,48623,2941,
39,151,151,151,151,151,151,151,151,151,151,151,151,151,151,151,151,151,151,151,151,151,151,151,151,151,151,151,151,151,151,151,151,151,151,151,151,151,151,151,151,151,151,151,151,151,151,151,151,151,151,151,151,151,151,151,151,151,151,151,151,151,151,151,151,151,151,151,151,151,151,151,151,151,49460,37780,44567,151,29267,41591,22318,
40,151,151,151,151,151,151,151,151,151,151,151,151,151,151,151,151,151,151,151,151,151,151,151,151,151,151,151,151,151,151,151,151,151,151,151,151,151,151,151,151,151,151,151,151,151,151,151,151,151,151,151,151,151,151,151,151,151,151,151,151,151,151,151,151,151,151,151,151,151,151,151,151,27159,18928,36729,151,151,32265,151,29220,
41,151,151,151,151,151,151,151,151,151,151,151,151,151,151,151,151,151,151,151,151,151,151,151,151,151,151,151,151,151,151,9753,151,151,151,151,151,151,151,151,9753,151,151,151,151,151,151,151,151,151,151,151,151,151,151,151,151,151,151,151,151,151,151,151,151,151,151,151,151,151,151,151,151,29601,26453,36911,5292,49823,151,151,59679,
42,151,151,151,151,151,151,151,151,151,151,151,151,151,151,151,151,151,151,151,151,151,151,151,151,151,151,151,151,151,151,151,5649,151,151,151,151,151,151,151,151,151,151,151,151,151,151,151,151,151,151,151,151,151,151,151,151,151,151,151,151,151,151,151,151,151,151,151,151,151,151,151,151,47188,14933,151,28603,29286,52588,151,12457,
43,151,151,151,151,151,151,151,151,151,151,151,151,151,151,151,151,151,151,151,151,151,151,151,151,151,151,151,151,151,151,151,151,151,151,151,151,151,151,151,151,151,151,151,151,151,151,151,151,151,151,151,151,151,151,151,151,151,151,151,151,151,151,151,151,151,151,151,151,151,151,5774,151,151,53655,42313,48953,11269,151,55523,53533,
44,151,151,151,151,151,151,151,151,151,151,151,151,151,151,151,151,151,151,151,151,151,151,151,151,151,151,151,151,151,151,151,151,151,151,151,151,151,151,151,151,151,151,151,151,151,151,151,22151,151,151,151,151,151,151,151,151,151,151,151,151,151,151,151,151,151,151,151,151,151,151,151,151,29294,151,32914,54572,35539,31127,15826,151,
45,151,151,151,151,151,151,151,151,151,151,151,151,151,151,151,151,151,151,151,151,151,151,151,151,151,151,151,151,151,151,151,151,151,151,151,151,151,151,151,151,151,151,151,151,151,151,151,151,151,151,151,151,151,151,151,151,151,151,151,151,151,151,151,151,151,151,151,151,151,151,151,151,151,55612,27758,51210,151,19303,32595,37298,
46,151,151,151,151,151,151,151,151,151,151,151,151,151,151,151,151,151,151,151,151,151,151,151,151,151,151,151,151,151,151,151,151,151,151,151,151,151,151,151,151,151,151,151,151,151,151,151,151,151,151,151,151,151,151,151,151,151,151,151,151,151,151,151,151,151,151,151,151,151,151,151,151,45107,151,47278,151,151,151,55528,38959,
47,151,151,151,151,151,151,151,151,151,151,151,151,151,151,151,151,151,151,151,151,151,151,151,151,151,151,151,151,151,151,151,151,151,151,151,151,151,151,151,151,151,151,151,8690,151,151,151,151,151,151,151,151,151,151,151,151,151,151,151,151,151,151,151,151,151,151,151,151,151,151,151,151,27558,14660,151,46158,151,151,32654,151,
48,151,151,151,151,151,151,151,151,151,151,151,151,151,151,151,151,151,151,151,151,151,151,151,151,151,151,151,151,151,151,151,151,151,151,151,151,151,151,151,151,151,151,151,151,151,151,151,151,151,151,151,151,151,151,151,151,151,151,151,151,151,151,151,151,151,151,151,151,151,151,151,151,4245,151,38489,48604,151,37816,151,151,
49,151,151,151,151,151,151,151,151,151,151,151,151,151,151,151,151,151,151,151,151,151,151,151,151,151,151,151,151,151,151,151,151,151,151,151,151,151,151,151,151,151,151,151,151,151,151,151,151,151,151,151,151,151,151,151,151,151,151,151,151,151,151,151,151,151,151,151,151,151,151,151,151,151,151,17526,47016,151,27051,44446,31365,
50,151,151,151,151,151,151,151,151,151,151,151,151,151,151,151,151,151,151,151,151,151,151,151,151,151,151,151,151,151,151,151,151,151,151,151,151,151,151,151,151,151,151,151,151,151,151,151,151,151,151,151,151,151,151,151,151,151,151,151,151,151,151,151,151,151,151,151,151,151,151,151,151,48668,151,25941,33259,33316,23695,50951,45969,
51,151,151,151,151,151,151,151,151,151,151,151,151,151,151,151,151,151,151,151,151,151,151,151,151,151,151,151,151,151,10392,151,13062,151,151,151,151,151,151,151,151,151,151,151,151,151,151,151,151,151,151,151,151,151,151,151,151,151,151,151,151,151,151,151,151,151,151,151,151,151,151,151,151,48427,23739,42022,151,151,151,151,151,
52,151,151,151,151,151,151,151,151,151,151,151,151,151,151,151,151,151,151,151,151,151,151,151,151,151,151,151,151,151,151,151,151,151,151,151,151,151,151,151,151,151,151,151,151,151,151,151,151,151,151,151,151,151,151,151,151,151,151,151,151,151,151,151,151,151,151,151,151,151,151,151,151,53511,21203,151,35367,151,47727,151,38227,
53,151,151,151,151,151,151,151,151,151,151,151,151,151,151,151,151,151,151,151,151,151,151,151,151,151,151,151,151,151,151,151,151,151,151,151,151,151,151,151,151,151,151,151,151,151,151,151,151,151,151,151,151,151,151,151,151,151,151,151,151,151,151,151,151,151,151,151,151,151,151,151,151,151,151,151,151,151,151,51413,5004,
54,151,151,151,151,151,151,151,151,151,151,151,151,151,151,151,151,151,151,151,151,151,151,151,151,151,151,151,151,151,151,151,151,151,151,151,151,151,151,151,151,151,151,151,151,151,151,151,151,151,151,151,151,151,151,151,151,151,151,151,151,151,151,151,151,151,151,151,151,151,151,151,151,3430,8188,38727,151,151,151,31071,151,
55,151,151,151,151,151,151,151,151,151,151,151,151,151,151,151,151,151,151,151,151,151,151,151,151,151,151,151,151,151,151,151,151,151,151,151,151,151,151,151,151,151,151,151,151,151,151,151,151,151,151,151,151,151,151,151,151,151,151,151,151,151,151,151,151,151,151,151,151,151,151,151,151,33805,44504,151,41390,151,114,50264,47313,
56,114,151,151,151,151,151,151,151,151,9733,151,151,151,151,151,151,151,151,9733,151,151,151,151,151,151,151,151,151,114,151,151,151,151,151,151,151,151,151,151,151,151,151,151,151,151,151,151,151,151,151,151,151,151,151,151,151,151,151,151,151,151,151,151,151,151,151,151,151,151,114,151,151,20055,19874,3225,151,52843,18490,38498,46350,
57,114,114,114,151,151,151,151,151,151,151,151,151,151,151,151,151,114,151,151,151,151,151,151,151,151,114,151,114,151,151,2239,151,151,151,151,151,114,151,151,151,151,151,2239,151,151,151,151,151,151,151,151,151,151,151,151,151,151,151,151,151,151,151,151,151,151,151,151,151,151,151,151,151,28384,52085,28587,53757,151,151,46552,151,
58,114,114,114,114,114,114,114,151,151,151,151,151,151,151,151,151,114,151,151,151,151,151,151,114,151,151,151,151,151,151,151,151,114,151,151,151,151,151,151,151,151,151,151,114,151,114,151,151,151,114,151,151,114,114,151,151,114,151,151,151,151,151,114,114,151,151,114,151,151,151,151,114,114,114,42504,31594,151,24523,44107,19081,
59,114,114,114,114,114,114,114,114,114,114,151,114,151,151,151,151,151,114,151,114,114,114,151,114,114,151,114,151,151,151,151,151,151,151,114,151,151,151,151,15690,114,114,151,151,151,151,114,114,151,114,114,114,151,114,151,114,151,114,114,114,114,114,151,114,114,114,114,114,151,151,114,151,20613,25900,114,25351,24671,114,8443,35680,
60,114,114,114,114,114,114,114,114,114,151,114,114,114,114,114,151,114,114,151,114,114,114,114,114,151,151,114,151,114,114,114,114,114,114,114,114,114,114,151,114,114,114,114,114,114,114,114,151,114,151,151,151,114,114,114,114,114,114,114,114,114,114,114,114,114,114,114,114,114,114,114,114,32060,53138,49055,53706,114,27616,26840,114,
61,114,114,114,114,114,114,114,114,114,114,114,114,114,114,114,114,114,114,114,114,114,114,114,114,114,114,114,114,114,114,114,114,114,114,114,114,114,114,114,114,114,114,114,114,114,114,114,114,114,114,114,114,114,114,114,114,114,114,114,114,114,114,114,114,114,114,114,114,114,114,114,114,4224,47956,58049,40953,59482,57867,114,39061,
62,114,114,114,114,114,114,114,114,114,114,114,114,114,114,114,114,114,114,114,114,114,114,114,114,114,114,114,114,114,114,114,114,114,114,114,114,114,114,114,114,114,20003,114,114,114,114,114,20003,114,114,114,114,114,23008,114,114,114,114,114,114,114,114,114,114,114,114,114,114,114,114,114,114,114,114,19247,40335,56948,17660,19693,36980,
63,114,114,114,114,114,114,114,114,114,114,114,114,114,114,114,114,114,114,114,114,114,114,114,114,114,114,114,114,114,114,114,114,114,114,114,114,114,114,114,114,114,114,114,114,114,114,114,114,114,114,114,114,114,114,114,114,114,114,114,114,114,114,114,114,114,114,114,114,114,114,114,114,46430,42016,40975,114,3537,29592,44176,20519,
64,114,114,114,114,114,114,114,114,114,114,114,114,114,114,114,114,114,114,114,114,114,114,114,114,114,114,114,114,114,114,114,114,114,114,114,114,114,114,114,13475,114,114,114,114,114,114,114,114,114,114,114,114,114,114,114,114,114,114,114,114,114,114,114,114,114,114,114,13475,114,114,114,114,114,31348,18673,19073,22767,22161,39034,43464,
65,114,114,114,114,114,114,114,114,114,114,114,114,114,114,114,114,114,114,6235,114,114,114,114,114,114,114,114,114,114,114,114,114,114,114,114,114,114,114,114,114,114,114,114,114,114,114,114,114,114,114,114,114,114,114,114,114,114,114,114,114,114,114,114,114,114,114,114,114,114,114,114,114,22293,54238,5550,114,9453,6519,11188,43270,
66,114,114,114,114,114,114,114,114,114,114,114,114,114,114,114,114,114,114,114,114,114,114,114,114,114,114,114,114,114,114,114,114,114,114,114,114,114,114,114,114,114,114,114,114,114,114,114,114,114,114,114,114,114,114,114,114,114,114,114,114,114,114,114,114,114,114,114,114,114,114,114,114,114,39456,114,23272,10387,50586,59354,24218,
67,114,114,114,114,114,114,114,114,114,114,114,114,114,114,114,114,114,114,114,114,114,114,114,114,114,114,114,114,114,114,114,114,114,114,114,114,114,114,114,114,114,114,114,114,114,114,114,114,114,114,114,114,114,114,114,114,114,114,114,114,114,114,5068,114,114,114,114,114,114,114,114,114,14763,51116,114,47547,1037,42282,17558,114,
68,114,114,114,114,114,114,114,114,114,114,114,114,114,114,114,1441,114,114,114,114,114,114,114,114,114,114,114,1441,114,114,114,114,114,114,114,114,114,114,114,114,114,114,114,114,114,114,114,114,114,114,114,114,114,114,114,114,1441,114,114,114,114,114,114,114,114,114,492,114,114,492,114,114,114,50620,114,30310,60385,11246,28824,32568,
69,114,114,114,114,114,114,114,114,114,114,6081,114,114,114,114,114,114,114,114,114,114,6081,114,114,114,114,114,114,114,114,114,114,114,114,114,114,114,114,114,114,114,114,114,114,114,114,114,114,22150,114,114,114,114,114,114,114,114,114,114,114,114,114,114,114,114,114,114,114,114,114,114,114,114,46726,58318,51305,114,114,25773,51896,
70,114,114,114,114,114,114,114,114,114,114,114,114,114,307,114,114,114,114,114,114,114,114,114,114,307,114,114,114,114,114,114,114,114,114,114,114,114,114,114,114,114,114,114,114,114,114,114,114,114,114,114,114,114,114,114,114,114,114,114,114,114,114,114,114,114,114,114,114,114,114,114,114,18930,114,114,7606,11700,23200,114,31113,
71,114,114,114,114,114,114,114,114,114,114,114,114,114,114,114,114,114,114,393,114,114,114,114,114,114,114,114,114,114,114,114,114,114,114,114,114,114,114,114,114,114,114,114,114,114,114,114,114,114,114,114,114,114,114,114,114,114,114,114,114,114,114,114,114,114,114,114,114,114,114,114,114,37146,48936,44909,26106,23341,24330,114,34850,
72,114,114,114,114,114,114,114,114,114,114,114,114,114,114,114,114,114,114,114,114,114,114,114,114,114,114,114,114,114,114,114,114,114,114,114,114,114,114,114,114,114,114,114,114,114,114,114,114,114,114,114,114,114,114,114,114,114,114,114,114,114,114,114,114,114,114,114,114,114,114,114,114,38493,49832,114,114,114,34877,114,33991,
73,114,114,114,114,114,114,114,114,114,114,114,114,114,114,114,114,114,114,114,114,114,114,114,114,114,114,114,114,114,114,114,114,114,114,114,114,114,114,114,114,114,114,114,114,114,114,114,114,114,114,114,114,114,114,114,114,114,114,114,114,114,114,114,114,114,114,114,114,114,114,114,114,114,38498,52293,114,114,38120,1479,114,
74,114,114,114,114,114,114,114,114,9288,114,114,114,114,114,114,114,114,114,114,114,114,114,114,114,114,114,114,114,114,114,114,114,114,114,114,26040,114,114,114,114,114,114,114,114,114,8201,114,114,114,114,114,114,114,114,114,114,114,114,114,114,114,114,114,114,9288,114,114,114,9288,114,114,114,22185,114,114,23352,28520,114,10877,7336,
75,114,114,114,114,114,114,114,114,114,114,114,114,114,114,114,114,114,114,114,114,114,114,114,114,114,114,114,114,114,114,114,114,114,114,114,114,114,114,114,114,114,114,114,114,114,114,114,114,114,114,114,114,114,114,3115,114,114,114,114,114,114,114,114,114,114,114,114,114,114,114,114,114,114,114,114,49861,27359,55502,26819,114,
76,114,114,114,114,114,114,114,114,114,114,114,114,114,114,114,114,114,114,114,114,114,114,114,114,114,114,114,114,114,114,114,114,114,114,114,114,114,114,114,114,114,114,114,114,114,114,114,114,114,114,114,114,114,114,114,114,114,114,4925,114,114,114,114,114,114,114,114,114,114,114,114,114,52855,27223,16942,48713,695,34527,20906,26936,
77,114,114,114,114,114,114,114,114,114,114,114,114,114,114,114,114,114,114,114,114,114,114,114,114,114,114,114,114,114,114,114,114,114,114,114,114,114,114,114,114,114,114,114,114,114,114,114,114,114,114,114,114,114,114,114,114,114,114,114,114,114,114,114,114,114,114,114,114,114,114,114,114,114,11494,22532,34218,114,15269,22908,51478,
78,114,114,114,114,114,114,114,114,114,114,114,114,114,114,114,114,114,114,114,114,114,114,114,114,114,114,114,114,114,114,114,114,114,114,114,114,114,114,114,114,114,114,114,114,114,114,114,114,114,114,114,114,114,114,114,114,114,114,114,114,114,114,114,114,114,114,114,114,114,114,114,114,114,43127,48372,44712,23574,114,44664,29434,
79,114,114,114,114,114,114,114,114,114,114,114,114,114,114,114,114,114,114,114,114,114,114,114,114,114,114,114,114,114,114,114,114,114,114,114,114,114,114,114,114,114,114,114,114,114,114,114,114,114,114,114,114,114,114,114,114,114,114,114,114,114,114,114,114,114,114,114,114,114,114,114,114,29264,43888,56110,43184,114,114,46788,1124,
80,114,114,114,114,114,114,114,114,114,114,114,114,114,114,114,114,114,114,114,114,114,114,114,114,114,114,114,114,114,114,114,114,114,114,114,114,114,114,114,114,114,114,114,114,114,114,114,114,114,114,114,114,114,114,114,114,114,114,114,114,114,114,114,114,114,114,114,114,114,114,114,114,114,18888,35592,26978,114,114,41117,55628,
81,114,114,114,114,114,114,114,114,114,114,114,114,114,114,114,114,114,114,114,114,114,114,114,114,114,114,114,114,114,114,114,114,114,114,114,114,114,114,114,114,114,114,114,114,114,114,114,114,114,114,114,114,114,114,114,114,114,114,114,114,114,114,114,114,114,114,114,114,114,114,114,114,11022,114,114,37692,19050,114,48116,19424,
82,114,114,114,114,114,114,114,114,114,114,114,114,114,114,114,114,114,114,114,114,114,114,114,114,114,114,114,114,114,114,114,114,114,114,114,114,114,114,114,114,114,114,114,114,114,114,114,114,114,114,114,114,114,114,114,114,114,114,114,114,114,114,114,114,114,114,114,114,114,114,114,114,11788,13653,38438,48239,34839,51211,114,48433,
83,114,114,114,114,114,114,114,114,114,114,114,114,114,114,114,114,114,114,114,114,114,114,114,114,114,114,114,114,114,114,114,114,114,114,114,114,114,114,114,114,114,114,114,114,114,114,114,114,114,114,114,114,114,114,114,114,114,114,114,114,114,114,114,114,114,114,114,114,114,114,114,114,59514,114,114,114,26437,114,26214,53329,
84,114,114,114,114,114,114,114,114,114,114,114,114,114,114,114,114,114,114,114,114,114,114,114,114,114,114,114,114,114,114,114,114,114,114,114,114,114,114,114,114,114,114,114,114,114,114,114,114,114,114,114,114,114,114,114,114,114,114,114,4694,114,114,114,114,114,114,114,114,114,114,114,114,35479,19475,114,22092,31024,47977,114,114,
85,114,114,114,114,114,114,114,114,114,114,114,114,114,114,114,114,114,114,114,114,114,114,114,114,114,114,114,114,114,114,114,114,114,114,114,114,114,114,114,114,114,114,114,114,114,114,114,114,114,114,114,114,114,114,114,114,114,114,2954,114,114,114,114,114,114,114,114,114,114,114,114,114,41539,52300,114,114,114,25694,9928,32114,
86,114,114,114,114,114,114,114,114,114,114,114,114,114,114,114,114,114,114,114,3348,114,114,114,114,114,114,114,114,114,114,114,114,114,114,114,114,114,114,114,114,114,114,114,114,114,114,114,114,114,114,114,114,114,114,114,114,114,114,114,114,114,114,114,114,114,114,114,114,114,114,114,114,114,114,13312,33792,114,114,114,114,
87,114,114,114,114,114,114,114,114,114,114,114,114,114,114,114,114,114,114,114,114,114,114,114,114,114,114,114,114,114,114,114,114,114,114,114,114,114,114,114,114,114,114,114,114,114,114,114,114,114,114,114,114,114,114,114,114,114,114,114,114,114,114,114,114,114,114,114,114,114,114,114,114,26887,27889,30395,43176,114,114,114,22088,
88,114,114,114,114,114,114,114,114,114,114,114,114,114,114,114,114,114,114,114,114,114,114,114,114,114,114,114,114,13721,114,114,114,114,114,114,114,114,114,114,114,114,114,114,114,114,114,13721,114,114,114,114,114,114,114,114,114,114,114,114,13721,114,114,114,114,114,114,114,114,13721,114,114,114,44271,61005,18494,45270,114,114,114,114,
89,114,114,114,114,114,114,114,114,114,114,114,114,114,114,114,114,114,114,114,114,114,114,114,114,114,114,114,114,114,114,114,114,114,114,114,114,114,114,114,114,114,114,114,114,114,114,114,114,114,114,114,114,114,114,114,114,114,114,114,114,114,114,114,114,114,114,114,114,114,114,114,114,114,23765,114,47787,114,114,53077,114,
90,114,114,114,114,114,114,114,114,114,114,114,114,114,114,114,114,114,114,114,114,114,114,114,114,114,7742,114,114,114,114,114,114,114,114,114,114,114,114,114,114,114,114,114,114,114,114,114,114,114,114,114,114,114,114,114,114,114,114,114,114,114,114,114,114,114,114,114,114,114,114,114,114,31601,27281,114,60104,58667,114,114,33697,
91,114,114,114,114,114,114,114,114,114,114,114,114,114,114,114,114,114,114,114,114,114,114,114,114,114,114,114,114,114,114,114,114,114,114,114,114,114,114,114,114,114,114,114,114,114,114,114,114,114,114,114,114,114,114,114,114,114,114,114,114,114,114,114,114,114,114,114,114,114,114,114,28268,17870,45240,33141,3455,114,10921,33618,114,
92,114,114,114,114,114,114,114,114,114,114,114,114,114,114,114,114,114,114,114,114,114,114,114,1543,114,114,114,114,114,114,114,114,114,114,114,114,114,1543,114,114,114,114,114,1543,114,114,114,114,114,114,114,114,114,114,114,114,114,114,114,114,114,114,114,114,114,114,114,114,114,114,114,114,16164,114,10398,46737,114,114,29528,3229,
93,114,114,114,114,114,114,114,114,114,114,114,114,114,114,114,114,114,114,114,114,114,114,114,114,114,114,114,114,114,114,114,114,114,114,114,114,114,114,114,114,114,114,114,114,114,114,114,114,114,114,114,114,114,114,114,114,114,114,114,114,114,114,114,114,114,114,114,114,114,114,114,114,114,3230,19754,53532,45530,47944,114,10157,
94,114,114,114,114,114,114,114,114,114,114,114,114,114,114,114,114,114,114,114,114,114,114,114,114,114,114,114,114,114,114,114,114,114,114,10555,114,114,114,114,114,114,114,114,114,114,114,114,114,114,10555,114,114,114,114,114,114,114,114,114,114,114,114,114,114,114,114,114,114,114,114,114,114,17790,114,114,114,114,114,114,114,
95,114,114,114,114,114,114,114,114,114,114,114,114,114,114,114,114,114,114,114,114,114,114,114,114,114,114,114,114,114,114,114,114,114,114,114,114,114,114,114,114,114,114,114,114,114,114,114,114,114,114,114,114,114,114,114,114,114,114,114,114,114,114,114,114,114,114,114,114,114,114,114,114,19141,29585,114,114,19032,114,27854,22360,
96,114,114,114,114,114,114,114,114,114,114,114,114,114,114,114,114,114,114,114,114,114,114,114,114,114,114,114,114,114,114,114,114,114,114,114,114,114,114,114,114,114,114,114,114,114,114,114,114,114,114,114,114,114,114,114,114,114,114,114,114,114,114,114,114,114,114,114,114,114,114,114,114,14179,8018,114,2342,58601,11180,20334,114,
97,114,114,114,114,114,114,114,114,114,114,114,114,114,114,114,114,114,114,114,114,114,114,114,114,114,114,114,114,114,114,114,114,114,114,114,114,114,114,114,114,114,114,114,114,114,114,114,114,114,114,114,114,114,114,114,114,114,114,114,114,114,114,114,114,114,114,114,114,114,114,114,114,114,114,17969,114,114,34379,20411,114,
98,114,114,114,114,114,114,114,114,114,114,114,114,114,114,2197,114,114,114,114,114,114,114,114,114,114,114,114,114,114,114,114,114,114,114,114,114,114,114,114,114,114,114,114,114,114,114,114,114,114,114,114,114,114,114,114,114,114,114,114,114,114,114,114,114,114,114,114,114,114,114,114,114,60428,53073,44316,114,30396,114,114,114,
99,114,114,114,114,114,114,114,114,114,114,114,114,114,114,114,114,114,114,114,114,114,114,114,114,114,114,114,114,114,114,114,114,114,114,114,114,114,114,114,114,114,114,114,114,114,114,114,114,114,114,114,114,114,114,114,114,114,114,114,114,114,114,114,114,114,114,114,114,114,114,114,114,114,114,14635,114,32179,34975,114,43722,
100,114,114,114,114,114,114,114,114,114,114,114,114,114,114,114,114,114,114,114,114,114,114,114,114,114,114,114,114,114,114,114,114,114,114,114,114,114,114,114,114,114,114,114,114,114,114,114,114,114,114,114,114,114,114,114,114,114,114,114,114,114,114,114,114,114,114,114,114,114,114,114,114,22720,44869,114,114,18481,114,114,14644,
